Solver command line: ['C:\\Program Files\\IBM\\ILOG\\CPLEX_Studio2211\\cplex\\bin\\x64_win64\\cplex.exe']


Welcome to IBM(R) ILOG(R) CPLEX(R) Interactive Optimizer 22.1.1.0
  with Simplex, Mixed Integer & Barrier Optimizers
5725-A06 5725-A29 5724-Y48 5724-Y49 5724-Y54 5724-Y55 5655-Y21
Copyright IBM Corp. 1988, 2022.  All Rights Reserved.

Type 'help' for a list of available commands.
Type 'help' followed by a command name for more
information on commands.

CPLEX> Logfile 'cplex.log' closed.
Logfile 'C:\Users\wangy\Documents\GitHub\re_optimization\result_site_specific\tmpa5lax3ez.cplex.log' open.
CPLEX> Problem 'C:\Users\wangy\Documents\GitHub\re_optimization\result_site_specific\tmp3fbhppme.pyomo.lp' read.
Read time = 0.27 sec. (7.98 ticks)
CPLEX> Problem name         : C:\Users\wangy\Documents\GitHub\re_optimization\result_site_specific\tmp3fbhppme.pyomo.lp
Objective sense      : Minimize
Variables            :   56997  [Nneg: 30685,  Free: 4406,  Binary: 6,
                                 Other: 21900]
Objective nonzeros   :      14
Linear constraints   :   78893  [Less: 42355,  Greater: 5,  Equal: 36533]
  Nonzeros           :  198725
  RHS nonzeros       :    3651

Variables            : Min LB: 0.000000         Max UB: 1.000000       
Objective nonzeros   : Min   : 1.000000         Max   : 1.000000       
Linear constraints   :
  Nonzeros           : Min   : 0.001344762      Max   : 100000.0       
  RHS nonzeros       : Min   : 0.01800000       Max   : 100000.0       
CPLEX> Version identifier: 22.1.1.0 | 2022-11-27 | 9160aff4d
Tried aggregator 3 times.
MIP Presolve eliminated 46366 rows and 25923 columns.
Aggregator did 10647 substitutions.
Reduced MIP has 21880 rows, 20427 columns, and 65678 nonzeros.
Reduced MIP has 2 binaries, 0 generals, 0 SOSs, and 0 indicators.
Presolve time = 0.19 sec. (206.95 ticks)
Found incumbent of value 206180.026744 after 0.28 sec. (315.14 ticks)
Probing time = 0.00 sec. (1.13 ticks)
Tried aggregator 1 time.
Detecting symmetries...
Reduced MIP has 21880 rows, 20427 columns, and 65678 nonzeros.
Reduced MIP has 2 binaries, 0 generals, 0 SOSs, and 0 indicators.
Presolve time = 0.05 sec. (42.53 ticks)
Probing time = 0.00 sec. (1.07 ticks)
MIP emphasis: balance optimality and feasibility.
MIP search method: dynamic search.
Parallel mode: deterministic, using up to 16 threads.
Root relaxation solution time = 1.27 sec. (783.07 ticks)

        Nodes                                         Cuts/
   Node  Left     Objective  IInf  Best Integer    Best Bound    ItCnt     Gap

*     0+    0                       206180.0267    -4411.3672           102.14%
*     0+    0                         4034.8810    -4411.3672           209.33%
      0     0     3672.3923     1     4034.8810     3672.3923       68    8.98%
*     0+    0                         4034.8730     3672.3923             8.98%
      0     0        cutoff           4034.8730                    432    0.00%
Elapsed time = 1.91 sec. (1547.58 ticks, tree = 0.01 MB, solutions = 3)

Root node processing (before b&c):
  Real time             =    1.91 sec. (1550.35 ticks)
Parallel b&c, 16 threads:
  Real time             =    0.00 sec. (0.00 ticks)
  Sync time (average)   =    0.00 sec.
  Wait time (average)   =    0.00 sec.
                          ------------
Total (root+branch&cut) =    1.91 sec. (1550.35 ticks)

Solution pool: 3 solutions saved.

MIP - Integer optimal solution:  Objective =  4.0348730442e+03
Solution time =    1.91 sec.  Iterations = 432  Nodes = 0
Deterministic time = 1550.51 ticks  (813.49 ticks/sec)

CPLEX> Incumbent solution written to file 'C:\Users\wangy\Documents\GitHub\re_optimization\result_site_specific\tmp93lbztfe.cplex.sol'.
CPLEX> 
